computational_data/solutions/ER_n40_p020_s4.sol
Optimal - objective value 11.00000000
      7 r_7                         1                       1
     12 r_12                        1                       1
     15 r_15                        1                       1
     16 r_16                        1                       1
     18 r_18                        1                       1
     34 r_34                        1                       1
     40 b_0                         1                       1
     49 b_9                         1                       1
     50 b_10                        1                       1
     51 b_11                        1                       1
     75 b_35                        1                       1
