computational_data/logs/ER_n40_p020_s4.log
Welcome to the CBC MILP Solver 
Version: 2.10.12 
Build Date: Aug 20 2024 

command line - /opt/homebrew/bin/cbc computational_data/lp/ER_n40_p020_s4.lp seconds 10.0 solve solu computational_data/solutions/ER_n40_p020_s4.sol (default strategy 1)
seconds was changed from 1e+100 to 10
Continuous objective value is 8.07228 - 0.00 seconds
Cgl0003I 0 fixed, 0 tightened bounds, 117 strengthened rows, 0 substitutions
Cgl0003I 0 fixed, 0 tightened bounds, 113 strengthened rows, 0 substitutions
Cgl0003I 0 fixed, 0 tightened bounds, 52 strengthened rows, 0 substitutions
Cgl0003I 0 fixed, 0 tightened bounds, 10 strengthened rows, 0 substitutions
Cgl0003I 0 fixed, 0 tightened bounds, 3 strengthened rows, 0 substitutions
Cgl0004I processed model has 333 rows, 80 columns (80 integer (80 of which binary)) and 1563 elements
Cutoff increment increased from 1e-05 to 0.9999
Cbc0038I Initial state - 48 integers unsatisfied sum - 8.07228
Cbc0038I Pass   1: suminf.    8.07534 (47) obj. 8.07534 iterations 3
Cbc0038I Pass   2: suminf.    8.72727 (34) obj. 8.72727 iterations 60
Cbc0038I Pass   3: suminf.    5.54724 (38) obj. 10.5709 iterations 63
Cbc0038I Pass   4: suminf.    0.00000 (0) obj. 12 iterations 63
Cbc0038I Solution found of 12
Cbc0038I Before mini branch and bound, 23 integers at bound fixed and 0 continuous
Cbc0038I Full problem 333 rows 80 columns, reduced to 251 rows 57 columns - 5 fixed gives 68, 24 - ok now
Cbc0038I Full problem 333 rows 80 columns, reduced to 65 rows 23 columns
Cbc0038I Mini branch and bound did not improve solution (0.03 seconds)
Cbc0038I Round again with cutoff of 10.7073
Cbc0038I Pass   5: suminf.    8.07534 (47) obj. 8.07534 iterations 0
Cbc0038I Pass   6: suminf.    6.56098 (29) obj. 10 iterations 73
Cbc0038I Pass   7: suminf.    4.76514 (31) obj. 10.7073 iterations 30
Cbc0038I Pass   8: suminf.    4.40941 (25) obj. 10.7073 iterations 25
Cbc0038I Pass   9: suminf.    8.27885 (33) obj. 10.7073 iterations 68
Cbc0038I Pass  10: suminf.    6.46076 (37) obj. 10.7073 iterations 61
Cbc0038I Pass  11: suminf.    7.89268 (26) obj. 10.7073 iterations 77
Cbc0038I Pass  12: suminf.    6.11909 (35) obj. 10.7073 iterations 57
Cbc0038I Pass  13: suminf.    7.30439 (32) obj. 10.7073 iterations 76
Cbc0038I Pass  14: suminf.    6.26735 (30) obj. 10.7073 iterations 50
Cbc0038I Pass  15: suminf.    5.88329 (29) obj. 10.7073 iterations 11
Cbc0038I Pass  16: suminf.    5.68044 (27) obj. 10.7073 iterations 23
Cbc0038I Pass  17: suminf.    4.37561 (27) obj. 10.7073 iterations 35
Cbc0038I Pass  18: suminf.    3.69122 (22) obj. 10.7073 iterations 28
Cbc0038I Pass  19: suminf.    6.69482 (33) obj. 10.7073 iterations 97
Cbc0038I Pass  20: suminf.    4.86422 (34) obj. 10.7073 iterations 47
Cbc0038I Pass  21: suminf.    4.62797 (34) obj. 10.7073 iterations 35
Cbc0038I Pass  22: suminf.    7.64672 (34) obj. 10.7073 iterations 55
Cbc0038I Pass  23: suminf.    5.80934 (38) obj. 10.7073 iterations 59
Cbc0038I Pass  24: suminf.    6.40791 (30) obj. 10.7073 iterations 40
Cbc0038I Pass  25: suminf.    4.89779 (29) obj. 10.7073 iterations 31
Cbc0038I Pass  26: suminf.    7.89804 (32) obj. 10.7073 iterations 82
Cbc0038I Pass  27: suminf.    6.27577 (37) obj. 10.7073 iterations 35
Cbc0038I Pass  28: suminf.    5.86249 (39) obj. 10.7073 iterations 23
Cbc0038I Pass  29: suminf.    5.40348 (34) obj. 10.7073 iterations 16
Cbc0038I Pass  30: suminf.    4.91616 (27) obj. 10.7073 iterations 32
Cbc0038I Pass  31: suminf.    4.62602 (22) obj. 10.7073 iterations 22
Cbc0038I Pass  32: suminf.    8.47823 (35) obj. 10.7073 iterations 85
Cbc0038I Pass  33: suminf.    6.49302 (39) obj. 10.7073 iterations 57
Cbc0038I Pass  34: suminf.    7.31656 (35) obj. 10.7073 iterations 61
Cbc0038I No solution found this major pass
Cbc0038I Before mini branch and bound, 2 integers at bound fixed and 0 continuous
Cbc0038I Full problem 333 rows 80 columns, reduced to 330 rows 78 columns - 4 fixed gives 127, 38 - ok now
Cbc0038I Full problem 333 rows 80 columns, reduced to 86 rows 27 columns
Cbc0038I Mini branch and bound did not improve solution (0.07 seconds)
Cbc0038I After 0.07 seconds - Feasibility pump exiting with objective of 12 - took 0.06 seconds
Cbc0012I Integer solution of 12 found by feasibility pump after 0 iterations and 0 nodes (0.07 seconds)
Cbc0038I Full problem 333 rows 80 columns, reduced to 222 rows 50 columns - 12 fixed gives 0, 0 - ok now
Cbc0031I 10 added rows had average density of 61.6
Cbc0013I At root node, 10 cuts changed objective from 8.0722758 to 8.3697443 in 100 passes
Cbc0014I Cut generator 0 (Probing) - 0 row cuts average 0.0 elements, 0 column cuts (0 active)  in 0.044 seconds - new frequency is -100
Cbc0014I Cut generator 1 (Gomory) - 1055 row cuts average 80.0 elements, 0 column cuts (0 active)  in 0.054 seconds - new frequency is -100
Cbc0014I Cut generator 2 (Knapsack) - 0 row cuts average 0.0 elements, 0 column cuts (0 active)  in 0.007 seconds - new frequency is -100
Cbc0014I Cut generator 3 (Clique) - 0 row cuts average 0.0 elements, 0 column cuts (0 active)  in 0.010 seconds - new frequency is -100
Cbc0014I Cut generator 4 (MixedIntegerRounding2) - 0 row cuts average 0.0 elements, 0 column cuts (0 active)  in 0.032 seconds - new frequency is -100
Cbc0014I Cut generator 5 (FlowCover) - 0 row cuts average 0.0 elements, 0 column cuts (0 active)  in 0.002 seconds - new frequency is -100
Cbc0014I Cut generator 7 (ZeroHalf) - 42 row cuts average 15.1 elements, 0 column cuts (0 active)  in 0.196 seconds - new frequency is -100
Cbc0010I After 0 nodes, 1 on tree, 12 best solution, best possible 8.3697443 (0.71 seconds)
Cbc0012I Integer solution of 11 found by DiveCoefficient after 4790 iterations and 13 nodes (0.91 seconds)
Cbc0001I Search completed - best objective 11, took 9175 iterations and 102 nodes (1.48 seconds)
Cbc0032I Strong branching done 1650 times (41110 iterations), fathomed 20 nodes and fixed 3 variables
Cbc0035I Maximum depth 15, 368 variables fixed on reduced cost
Cuts at root node changed objective from 8.07228 to 8.36974
Probing was tried 100 times and created 0 cuts of which 0 were active after adding rounds of cuts (0.044 seconds)
Gomory was tried 100 times and created 1055 cuts of which 0 were active after adding rounds of cuts (0.054 seconds)
Knapsack was tried 100 times and created 0 cuts of which 0 were active after adding rounds of cuts (0.007 seconds)
Clique was tried 100 times and created 0 cuts of which 0 were active after adding rounds of cuts (0.010 seconds)
MixedIntegerRounding2 was tried 100 times and created 0 cuts of which 0 were active after adding rounds of cuts (0.032 seconds)
FlowCover was tried 100 times and created 0 cuts of which 0 were active after adding rounds of cuts (0.002 seconds)
TwoMirCuts was tried 1 times and created 0 cuts of which 0 were active after adding rounds of cuts (0.001 seconds)
ZeroHalf was tried 100 times and created 42 cuts of which 0 were active after adding rounds of cuts (0.196 seconds)

Result - Optimal solution found

Objective value:                11.00000000
Enumerated nodes:               102
Total iterations:               9175
Time (CPU seconds):             1.49
Time (Wallclock seconds):       1.58

Total time (CPU seconds):       1.49   (Wallclock seconds):       1.58

